(set-info :original "/var/folders/xz/sgqbj6yn0yv_1mpy6_jqympm0000gn/T/sea-LZxiKs/standard_sentinel-2.pp.ms.o.bc")
(set-info :authors "SeaHorn v.0.1.0-rc3")
(declare-rel verifier.error (Bool Bool Bool ))
(declare-rel main@entry ())
(declare-rel main@_bb (Int Int (Array Int Int) ))
(declare-rel main@_bb5 (Int Int (Array Int Int) ))
(declare-rel main@verifier.error.split ())
(declare-var main@%_7_0 Int )
(declare-var main@%_24_0 Bool )
(declare-var main@%_25_0 Int )
(declare-var main@%_26_0 Bool )
(declare-var main@%_18_0 Int )
(declare-var main@%_19_0 Int )
(declare-var main@%_20_0 Bool )
(declare-var main@%_21_0 Int )
(declare-var main@%_22_0 Bool )
(declare-var main@%_10_0 Int )
(declare-var main@%_11_0 Int )
(declare-var main@%_12_0 Bool )
(declare-var main@%_13_0 Bool )
(declare-var main@%_14_0 Bool )
(declare-var main@%_5_0 Int )
(declare-var main@%_3_0 Bool )
(declare-var main@%_1_0 Int )
(declare-var main@entry_0 Bool )
(declare-var main@%sm2_0 (Array Int Int) )
(declare-var main@%_0_0 Int )
(declare-var main@_bb_0 Bool )
(declare-var main@%shadow.mem.0.0_0 (Array Int Int) )
(declare-var main@%.01.i_0 Int )
(declare-var main@%shadow.mem.0.0_1 (Array Int Int) )
(declare-var main@%.01.i_1 Int )
(declare-var main@_bb4_0 Bool )
(declare-var main@%sm1_0 (Array Int Int) )
(declare-var main@%_8_0 Int )
(declare-var main@_bb_1 Bool )
(declare-var main@%shadow.mem.0.0_2 (Array Int Int) )
(declare-var main@%.01.i_2 Int )
(declare-var main@_bb3_0 Bool )
(declare-var main@%sm_0 (Array Int Int) )
(declare-var main@_bb5_0 Bool )
(declare-var main@%.0.i_0 Int )
(declare-var main@%.0.i_1 Int )
(declare-var main@_bb6_0 Bool )
(declare-var main@%_16_0 Int )
(declare-var main@_bb5_1 Bool )
(declare-var main@%.0.i_2 Int )
(declare-var main@_bb7_0 Bool )
(declare-var main@__VERIFIER_assert.exit.i_0 Bool )
(declare-var main@_bb9_0 Bool )
(declare-var main@_bb8_0 Bool )
(declare-var main@verifier.error_0 Bool )
(declare-var main@verifier.error.split_0 Bool )
(rule (verifier.error false false false))
(rule (verifier.error false true true))
(rule (verifier.error true false true))
(rule (verifier.error true true true))
(rule main@entry)
(rule (=> (and main@entry
         true
         (> main@%_0_0 0)
         (= main@%_1_0 main@%_0_0)
         (=> main@_bb_0 (and main@_bb_0 main@entry_0))
         (=> (and main@_bb_0 main@entry_0)
             (= main@%shadow.mem.0.0_0 main@%sm2_0))
         (=> (and main@_bb_0 main@entry_0) (= main@%.01.i_0 0))
         (=> (and main@_bb_0 main@entry_0)
             (= main@%shadow.mem.0.0_1 main@%shadow.mem.0.0_0))
         (=> (and main@_bb_0 main@entry_0) (= main@%.01.i_1 main@%.01.i_0))
         main@_bb_0)
    (main@_bb main@%_0_0 main@%.01.i_1 main@%shadow.mem.0.0_1)))
(rule (let ((a!1 (=> main@_bb4_0
               (= main@%_7_0 (+ main@%_0_0 (* 0 400000) (* main@%.01.i_0 4))))))
(let ((a!2 (and (main@_bb main@%_0_0 main@%.01.i_0 main@%shadow.mem.0.0_0)
                true
                (= main@%_3_0 (< main@%.01.i_0 100000))
                (=> main@_bb4_0 (and main@_bb4_0 main@_bb_0))
                (=> (and main@_bb4_0 main@_bb_0) main@%_3_0)
                a!1
                (=> main@_bb4_0 (or (<= main@%_0_0 0) (> main@%_7_0 0)))
                (=> main@_bb4_0 (> main@%_0_0 0))
                (=> main@_bb4_0
                    (= main@%sm1_0 (store main@%shadow.mem.0.0_0 main@%_7_0 1)))
                (=> main@_bb4_0 (= main@%_8_0 (+ main@%.01.i_0 1)))
                (=> main@_bb_1 (and main@_bb_1 main@_bb4_0))
                (=> (and main@_bb_1 main@_bb4_0)
                    (= main@%shadow.mem.0.0_1 main@%sm1_0))
                (=> (and main@_bb_1 main@_bb4_0) (= main@%.01.i_1 main@%_8_0))
                (=> (and main@_bb_1 main@_bb4_0)
                    (= main@%shadow.mem.0.0_2 main@%shadow.mem.0.0_1))
                (=> (and main@_bb_1 main@_bb4_0)
                    (= main@%.01.i_2 main@%.01.i_1))
                main@_bb_1)))
  (=> a!2 (main@_bb main@%_0_0 main@%.01.i_2 main@%shadow.mem.0.0_2)))))
(rule (let ((a!1 (=> main@_bb3_0 (= main@%_5_0 (+ main@%_0_0 (* 0 400000) (* 5 4))))))
(let ((a!2 (and (main@_bb main@%_0_0 main@%.01.i_0 main@%shadow.mem.0.0_0)
                true
                (= main@%_3_0 (< main@%.01.i_0 100000))
                (=> main@_bb3_0 (and main@_bb3_0 main@_bb_0))
                (=> (and main@_bb3_0 main@_bb_0) (not main@%_3_0))
                a!1
                (=> main@_bb3_0 (or (<= main@%_0_0 0) (> main@%_5_0 0)))
                (=> main@_bb3_0 (> main@%_0_0 0))
                (=> main@_bb3_0
                    (= main@%sm_0 (store main@%shadow.mem.0.0_0 main@%_5_0 5)))
                (=> main@_bb5_0 (and main@_bb5_0 main@_bb3_0))
                (=> (and main@_bb5_0 main@_bb3_0) (= main@%.0.i_0 0))
                (=> (and main@_bb5_0 main@_bb3_0) (= main@%.0.i_1 main@%.0.i_0))
                main@_bb5_0)))
  (=> a!2 (main@_bb5 main@%_0_0 main@%.0.i_1 main@%sm_0)))))
(rule (let ((a!1 (and (main@_bb5 main@%_0_0 main@%.0.i_0 main@%sm_0)
                true
                (= main@%_10_0 (+ main@%_0_0 (* 0 400000) (* main@%.0.i_0 4)))
                (or (<= main@%_0_0 0) (> main@%_10_0 0))
                (> main@%_0_0 0)
                (= main@%_11_0 (select main@%sm_0 main@%_10_0))
                (= main@%_12_0 (not (= main@%_11_0 5)))
                (= main@%_13_0 (< main@%.0.i_0 100))
                (= main@%_14_0 (and main@%_13_0 main@%_12_0))
                (=> main@_bb6_0 (and main@_bb6_0 main@_bb5_0))
                (=> (and main@_bb6_0 main@_bb5_0) main@%_14_0)
                (=> main@_bb6_0 (= main@%_16_0 (+ main@%.0.i_0 1)))
                (=> main@_bb5_1 (and main@_bb5_1 main@_bb6_0))
                (=> (and main@_bb5_1 main@_bb6_0) (= main@%.0.i_1 main@%_16_0))
                (=> (and main@_bb5_1 main@_bb6_0) (= main@%.0.i_2 main@%.0.i_1))
                main@_bb5_1)))
  (=> a!1 (main@_bb5 main@%_0_0 main@%.0.i_2 main@%sm_0))))
(rule (let ((a!1 (= main@%_10_0 (+ (+ main@%_0_0 (* 0 400000)) (* main@%.0.i_0 4))))
      (a!2 (= main@%_18_0 (+ (+ main@%_0_0 (* 0 400000)) (* 5 4)))))
(let ((a!3 (and (main@_bb5 main@%_0_0 main@%.0.i_0 main@%sm_0)
                true
                a!1
                (or (<= main@%_0_0 0) (> main@%_10_0 0))
                (> main@%_0_0 0)
                (= main@%_11_0 (select main@%sm_0 main@%_10_0))
                (= main@%_12_0 (not (= main@%_11_0 5)))
                (= main@%_13_0 (< main@%.0.i_0 100))
                (= main@%_14_0 (and main@%_13_0 main@%_12_0))
                (=> main@_bb7_0 (and main@_bb7_0 main@_bb5_0))
                (=> (and main@_bb7_0 main@_bb5_0) (not main@%_14_0))
                (=> main@_bb7_0 a!2)
                (=> main@_bb7_0 (or (<= main@%_0_0 0) (> main@%_18_0 0)))
                (=> main@_bb7_0 (> main@%_0_0 0))
                (=> main@_bb7_0 (= main@%_19_0 (select main@%sm_0 main@%_18_0)))
                (=> main@_bb7_0 (= main@%_20_0 (= main@%_19_0 6)))
                (=> main@_bb7_0 (= main@%_21_0 (ite main@%_20_0 1 0)))
                (=> main@_bb7_0 (= main@%_22_0 (= main@%_21_0 0)))
                (=> main@__VERIFIER_assert.exit.i_0
                    (and main@__VERIFIER_assert.exit.i_0 main@_bb7_0))
                (=> (and main@__VERIFIER_assert.exit.i_0 main@_bb7_0)
                    (not main@%_22_0))
                (=> main@__VERIFIER_assert.exit.i_0
                    (= main@%_24_0 (= main@%.0.i_0 5)))
                (=> main@__VERIFIER_assert.exit.i_0
                    (= main@%_25_0 (ite main@%_24_0 1 0)))
                (=> main@__VERIFIER_assert.exit.i_0
                    (= main@%_26_0 (= main@%_25_0 0)))
                (=> main@__VERIFIER_assert.exit.i_0 main@%_26_0)
                (=> main@_bb9_0
                    (and main@_bb9_0 main@__VERIFIER_assert.exit.i_0))
                (=> main@_bb8_0 (and main@_bb8_0 main@_bb7_0))
                (=> (and main@_bb8_0 main@_bb7_0) main@%_22_0)
                (=> main@verifier.error_0
                    (or (and main@verifier.error_0 main@_bb9_0)
                        (and main@verifier.error_0 main@_bb8_0)))
                (=> main@verifier.error.split_0
                    (and main@verifier.error.split_0 main@verifier.error_0))
                main@verifier.error.split_0)))
  (=> a!3 main@verifier.error.split))))
(query main@verifier.error.split)

